; Property from "Case-Analysis for Rippling and Inductive Proof",
; Moa Johansson, Lucas Dixon and Alan Bundy, ITP 2010
(declare-datatypes (a)
  ((list (nil) (cons (head a) (tail (list a))))))
(declare-datatypes () ((Nat (Z) (S (p Nat)))))
(define-fun-rec
  (par (a)
    (take
       ((x Nat) (y (list a))) (list a)
       (match x
         (case Z (as nil (list a)))
         (case (S z)
           (match y
             (case nil (as nil (list a)))
             (case (cons x2 x3) (cons x2 (take z x3)))))))))
(define-fun-rec
  plus
    ((x Nat) (y Nat)) Nat
    (match x
      (case Z y)
      (case (S z) (S (plus z y)))))
(define-fun-rec
  (par (a)
    (drop
       ((x Nat) (y (list a))) (list a)
       (match x
         (case Z y)
         (case (S z)
           (match y
             (case nil (as nil (list a)))
             (case (cons x2 x3) (drop z x3))))))))
(assert-not
  (par (a)
    (forall ((n Nat) (m Nat) (xs (list a)))
      (= (take n (drop m xs)) (drop m (take (plus n m) xs))))))
(check-sat)
